76
125
100	1
99	7
98	9
97	13
96	7
95	4
94	3
93	2
92	6
91	4
90	5
89	10
88	5
87	7
86	6
85	7
84	8
83	6
82	8
81	4
80	7
79	6
78	8
77	4
76	4
75	9
74	8
73	7
72	8
71	6
70	8
69	14
68	12
67	5
66	8
65	6
64	6
63	9
62	11
61	9
60	8
59	9
58	6
57	5
56	7
55	3
54	7
53	4
52	5
51	6
50	8
49	6
48	7
47	9
46	5
45	7
44	3
43	5
42	6
41	6
40	7
39	4
38	8
37	5
36	8
35	5
34	8
33	8
32	6
31	3
30	5
29	7
28	2
27	11
26	4
25	10
